;solve this numeric problem (find the value of e)
;(d + b) + c = 36
;(a + a) * d = 646
;(a * c) - c = 272
;(d - a) - c = e


(declare-const a Int)
(declare-const b Int)
(declare-const c Int)
(declare-const d Int)
(declare-const e Int)

